Problem:    
Rows:       248
Columns:    89 (72 integer, 72 binary)
Non-zeros:  820
Status:     INTEGER OPTIMAL
Objective:  value = 149.824 (MINimum)

   No.   Row name        Activity     Lower bound   Upper bound
------ ------------    ------------- ------------- -------------
     1 r.5                   149.824             0               
     2 r.6                  -1829.42      -1979.25               
     3 r.7                   2149.82             0               
     4 r.8                  -1957.19      -1962.47               
     5 r.9                   2149.82             0               
     6 r.10                 -1938.67      -1976.37               
     7 r.11                  149.824             0               
     8 r.12                 -1747.18      -1959.82               
     9 r.13                  2149.82             0               
    10 r.14                 -1905.39      -1966.72               
    11 r.15                  149.824             0               
    12 r.16                 -1787.36      -1937.18               
    13 r.17                  2149.82             0               
    14 r.18                  -1962.3      -1980.62               
    15 r.19                  149.824             0               
    16 r.20                   5.2754      -1964.08               
    17 r.21                  149.824             0               
    18 r.22                  30.3208      -1982.68               
    19 r.23                  2149.82             0               
    20 r.24                  -1931.8       -1968.6               
    21 r.25                  149.824             0               
    22 r.26                 -1797.94      -1947.77               
    23 r.27                  2149.82             0               
    24 r.28                 -1850.18      -1933.38               
    25 r.29                  2149.82             0               
    26 r.30                 -1850.18      -1947.79               
    27 r.31                  149.824             0               
    28 r.32                   5.2754      -1933.75               
    29 r.33                  2149.82             0               
    30 r.34                 -1997.72      -1997.72               
    31 r.35                  149.824             0               
    32 r.36                 -1967.66      -1967.66               
    33 r.37                        1             1             = 
    34 r.38                        1             1             = 
    35 r.39                        1             1             = 
    36 r.40                        1             1             = 
    37 r.41                        1             1             = 
    38 r.42                        1             1             = 
    39 r.43                        1             1             = 
    40 r.44                        1             1             = 
    41 r.45                  1890.75       23.6306               
    42 r.46                 -1890.75      -1979.25               
    43 r.47                  210.018       40.1808               
    44 r.48                 -210.018      -1962.47               
    45 r.49                  1924.03         33.28               
    46 r.50                 -1924.03      -1979.25               
    47 r.51                  169.837       62.8198               
    48 r.52                 -169.837      -1962.47               
    49 r.53                  1867.12       19.3806               
    50 r.54                 -1867.12      -1979.25               
    51 r.55                  1962.47       35.9203               
    52 r.56                 -1962.47      -1962.47               
    53 r.57                  1853.74       17.3166               
    54 r.58                 -1847.74      -1979.25               
    55 r.59                  31.3956       31.3956               
    56 r.60                 -37.3956      -1962.47               
    57 r.61                  31.4784      -1944.77               
    58 r.62                 -20.7548      -1930.38               
    59 r.63                 -1840.75      -1944.77               
    60 r.64                 -1892.98      -1930.38               
    61 r.65                  1979.25        52.212               
    62 r.66                 -1979.25      -1979.25               
    63 r.67                  1962.47       66.2506               
    64 r.68                 -1962.47      -1962.47               
    65 r.69                  -1831.7      -1976.25               
    66 r.70                 -1959.47      -1959.47               
    67 r.71                  138.235      -1976.25               
    68 r.72                  10.4632      -1959.47               
    69 r.73                  109.247       20.7548               
    70 r.74                 -109.247      -1976.37               
    71 r.75                  1789.98       37.5314               
    72 r.76                 -1789.98      -1959.82               
    73 r.77                    33.28         33.28               
    74 r.78                   -33.28      -1976.37               
    75 r.79                  1959.82       62.8198               
    76 r.80                 -1959.82      -1959.82               
    77 r.81                  1976.37       19.3806               
    78 r.82                 -1976.37      -1976.37               
    79 r.83                  1752.45       35.9203               
    80 r.84                 -1752.45      -1959.82               
    81 r.85                  1962.99       17.3166               
    82 r.86                 -1956.99      -1976.37               
    83 r.87                  1821.38       31.3956               
    84 r.88                 -1827.38      -1959.82               
    85 r.89                  140.725       52.2332               
    86 r.90                 -140.725      -1976.37               
    87 r.91                     1897       66.6216               
    88 r.92                    -1897      -1959.82               
    89 r.93                 -1911.51      -1944.79               
    90 r.94                 -56.0566      -1930.75               
    91 r.95                 -103.001      -1944.79               
    92 r.96                  1752.45      -1930.75               
    93 r.97                 -1940.94      -1973.37               
    94 r.98                 -1749.45      -1956.82               
    95 r.99                  28.9884      -1973.37               
    96 r.100                 220.481      -1956.82               
    97 r.101                 75.9668       20.7548               
    98 r.102                -75.9668      -1966.72               
    99 r.103                 1830.16       37.5314               
   100 r.104                -1830.16      -1937.18               
   101 r.105                 1966.72       23.6306               
   102 r.106                -1966.72      -1966.72               
   103 r.107                 40.1808       40.1808               
   104 r.108                -40.1808      -1937.18               
   105 r.109                -1943.09      -1963.72               
   106 r.110                -1825.06      -1934.18               
   107 r.111                -1910.66      -1963.72               
   108 r.112                -1792.63      -1934.18               
   109 r.113                 1929.71       17.3166               
   110 r.114                -1923.71      -1966.72               
   111 r.115                 1861.56       31.3956               
   112 r.116                -1867.56      -1937.18               
   113 r.117                 107.445       52.2332               
   114 r.118                -107.445      -1966.72               
   115 r.119                 1937.18       66.6216               
   116 r.120                -1937.18      -1937.18               
   117 r.121                -1944.79      -1944.79               
   118 r.122                -89.3366      -1930.75               
   119 r.123                -62.8198      -1944.79               
   120 r.124                 1792.63      -1930.75               
   121 r.125                -1907.66      -1963.72               
   122 r.126                -1789.63      -1934.18               
   123 r.127                 62.2684      -1963.72               
   124 r.128                   180.3      -1934.18               
   125 r.129                 132.877       20.7548               
   126 r.130                -132.877      -1980.62               
   127 r.131                 37.5314       37.5314               
   128 r.132                -37.5314      -1964.08               
   129 r.133                 23.6306       23.6306               
   130 r.134                -23.6306      -1980.62               
   131 r.135                 247.549       40.1808               
   132 r.136                -247.549      -1964.08               
   133 r.137                -1943.09      -1963.72               
   134 r.138                -1825.06      -1934.18               
   135 r.139                -1910.66      -1963.72               
   136 r.140                -1792.63      -1934.18               
   137 r.141                 1986.62       17.3166               
   138 r.142                -1980.62      -1980.62               
   139 r.143                  68.927       31.3956               
   140 r.144                 -74.927      -1964.08               
   141 r.145                 164.356       52.2332               
   142 r.146                -164.356      -1980.62               
   143 r.147                 144.549       66.6216               
   144 r.148                -144.549      -1964.08               
   145 r.149                -1887.88      -1944.79               
   146 r.150                 -32.426      -1930.75               
   147 r.151                -1855.45      -1944.79               
   148 r.152                       0      -1930.75               
   149 r.153                -1964.57      -1974.62               
   150 r.154                       3      -1958.08               
   151 r.155                  5.3578      -1974.62               
   152 r.156                 1972.93      -1958.08               
   153 r.157                 152.258       20.7548               
   154 r.158                -152.258      -1982.68               
   155 r.159                  1962.6       37.5314               
   156 r.160                 -1962.6       -1968.6               
   157 r.161                 43.0112       23.6306               
   158 r.162                -43.0112      -1982.68               
   159 r.163                 172.622       40.1808               
   160 r.164                -172.622       -1968.6               
   161 r.165                 76.2912         33.28               
   162 r.166                -76.2912      -1982.68               
   163 r.167                 132.441       62.8198               
   164 r.168                -132.441       -1968.6               
   165 r.169                 19.3806       19.3806               
   166 r.170                -19.3806      -1982.68               
   167 r.171                 1925.07       35.9203               
   168 r.172                -1925.07       -1968.6               
   169 r.173                -1816.26      -1944.77               
   170 r.174                 -1868.5      -1930.38               
   171 r.175                -1878.15      -1944.77               
   172 r.176                -1930.38      -1930.38               
   173 r.177                 -1868.5      -1944.79               
   174 r.178                -13.0453      -1930.75               
   175 r.179                -1930.38      -1944.79               
   176 r.180                 -74.927      -1930.75               
   177 r.181                 16.0454      -1976.68               
   178 r.182                -1922.07       -1962.6               
   179 r.183                 1985.98      -1976.68               
   180 r.184                 47.8588       -1962.6               
   181 r.185                 31.4784      -1944.77               
   182 r.186                -20.7548      -1930.38               
   183 r.187                -1840.75      -1944.77               
   184 r.188                -1892.98      -1930.38               
   185 r.189                 1859.27       23.6306               
   186 r.190                -1859.27      -1947.77               
   187 r.191                 103.001       40.1808               
   188 r.192                -103.001      -1933.38               
   189 r.193                 1892.55         33.28               
   190 r.194                -1892.55      -1947.77               
   191 r.195                 62.8198       62.8198               
   192 r.196                -62.8198      -1933.38               
   193 r.197                 1835.64       19.3806               
   194 r.198                -1835.64      -1947.77               
   195 r.199                 1855.45       35.9203               
   196 r.200                -1855.45      -1933.38               
   197 r.201                -1816.26      -1944.77               
   198 r.202                 -1868.5      -1930.38               
   199 r.203                -1878.15      -1944.77               
   200 r.204                -1930.38      -1930.38               
   201 r.205                 1947.77        52.212               
   202 r.206                -1947.77      -1947.77               
   203 r.207                 1855.45       66.2506               
   204 r.208                -1855.45      -1933.38               
   205 r.209                 20.7548       20.7548               
   206 r.210                -20.7548      -1947.79               
   207 r.211                 37.5314       37.5314               
   208 r.212                -37.5314      -1933.75               
   209 r.213                -1911.51      -1944.79               
   210 r.214                -56.0566      -1930.75               
   211 r.215                -103.001      -1944.79               
   212 r.216                 1752.45      -1930.75               
   213 r.217                -1944.79      -1944.79               
   214 r.218                -89.3366      -1930.75               
   215 r.219                -62.8198      -1944.79               
   216 r.220                 1792.63      -1930.75               
   217 r.221                -1887.88      -1944.79               
   218 r.222                 -32.426      -1930.75               
   219 r.223                -1855.45      -1944.79               
   220 r.224                       0      -1930.75               
   221 r.225                 -1868.5      -1944.79               
   222 r.226                -13.0453      -1930.75               
   223 r.227                -1930.38      -1944.79               
   224 r.228                 -74.927      -1930.75               
   225 r.229                 52.2332       52.2332               
   226 r.230                -52.2332      -1947.79               
   227 r.231                 144.549       66.6216               
   228 r.232                -144.549      -1933.75               
   229 r.233                 -1831.7      -1976.25               
   230 r.234                -1959.47      -1959.47               
   231 r.235                 138.235      -1976.25               
   232 r.236                 10.4632      -1959.47               
   233 r.237                -1940.94      -1973.37               
   234 r.238                -1749.45      -1956.82               
   235 r.239                 28.9884      -1973.37               
   236 r.240                 220.481      -1956.82               
   237 r.241                -1907.66      -1963.72               
   238 r.242                -1789.63      -1934.18               
   239 r.243                 62.2684      -1963.72               
   240 r.244                   180.3      -1934.18               
   241 r.245                -1964.57      -1974.62               
   242 r.246                       3      -1958.08               
   243 r.247                  5.3578      -1974.62               
   244 r.248                 1972.93      -1958.08               
   245 r.249                 16.0454      -1976.68               
   246 r.250                -1922.07       -1962.6               
   247 r.251                 1985.98      -1976.68               
   248 r.252                 47.8588       -1962.6               

   No. Column name       Activity     Lower bound   Upper bound
------ ------------    ------------- ------------- -------------
     1 tt                    149.824             0               
     2 s_1_1        *              0             0             1 
     3 t_1_1                 1979.25             0               
     4 s_1_6        *              0             0             1 
     5 s_2_1        *              1             0             1 
     6 t_2_1                 107.017             0               
     7 s_2_6        *              1             0             1 
     8 s_1_2        *              1             0             1 
     9 t_1_2                  88.492             0               
    10 s_1_7        *              1             0             1 
    11 s_2_2        *              0             0             1 
    12 t_2_2                    1897             0               
    13 s_2_7        *              0             0             1 
    14 s_1_3        *              1             0             1 
    15 t_1_3                  55.212             0               
    16 s_2_3        *              0             0             1 
    17 t_2_3                 1937.18             0               
    18 s_1_4        *              1             0             1 
    19 t_1_4                 112.123             0               
    20 s_2_4        *              0             0             1 
    21 t_2_4                 144.549             0               
    22 s_1_5        *              0             0             1 
    23 t_1_5                 131.503             0               
    24 s_2_5        *              1             0             1 
    25 t_2_5                 69.6216             0               
    26 t_1_6                 1947.77             0               
    27 t_2_6                       0             0               
    28 t_1_7                       0             0               
    29 t_2_7                 144.549             0               
    30 s_1_8        *              1             0             1 
    31 t_1_8                 147.549             0               
    32 s_2_8        *              0             0             1 
    33 t_2_8                 2117.48             0               
    34 u_1_1_2      *              0             0             1 
    35 u_2_1_2      *              1             0             1 
    36 u_1_1_3      *              0             0             1 
    37 u_2_1_3      *              1             0             1 
    38 u_1_1_4      *              0             0             1 
    39 u_2_1_4      *              1             0             1 
    40 u_1_1_5      *              0             0             1 
    41 u_2_1_5      *              0             0             1 
    42 u_1_1_7      *              0             0             1 
    43 u_2_1_7      *              1             0             1 
    44 u_1_2_1      *              1             0             1 
    45 u_2_2_1      *              0             0             1 
    46 u_1_2_3      *              0             0             1 
    47 u_2_2_3      *              1             0             1 
    48 u_1_2_4      *              1             0             1 
    49 u_2_2_4      *              0             0             1 
    50 u_1_2_5      *              1             0             1 
    51 u_2_2_5      *              0             0             1 
    52 u_1_2_6      *              1             0             1 
    53 u_2_2_6      *              0             0             1 
    54 u_1_3_1      *              1             0             1 
    55 u_2_3_1      *              0             0             1 
    56 u_1_3_2      *              1             0             1 
    57 u_2_3_2      *              0             0             1 
    58 u_1_3_5      *              1             0             1 
    59 u_2_3_5      *              0             0             1 
    60 u_1_3_6      *              1             0             1 
    61 u_2_3_6      *              0             0             1 
    62 u_1_4_1      *              1             0             1 
    63 u_2_4_1      *              0             0             1 
    64 u_1_4_2      *              0             0             1 
    65 u_2_4_2      *              1             0             1 
    66 u_1_4_5      *              1             0             1 
    67 u_2_4_5      *              0             0             1 
    68 u_1_4_6      *              1             0             1 
    69 u_2_4_6      *              0             0             1 
    70 u_1_5_1      *              1             0             1 
    71 u_2_5_1      *              1             0             1 
    72 u_1_5_2      *              0             0             1 
    73 u_2_5_2      *              1             0             1 
    74 u_1_5_3      *              0             0             1 
    75 u_2_5_3      *              1             0             1 
    76 u_1_5_4      *              0             0             1 
    77 u_2_5_4      *              1             0             1 
    78 u_1_6_2      *              0             0             1 
    79 u_2_6_2      *              1             0             1 
    80 u_1_6_3      *              0             0             1 
    81 u_2_6_3      *              1             0             1 
    82 u_1_6_4      *              0             0             1 
    83 u_2_6_4      *              1             0             1 
    84 u_1_6_7      *              0             0             1 
    85 u_2_6_7      *              1             0             1 
    86 u_1_7_1      *              1             0             1 
    87 u_2_7_1      *              0             0             1 
    88 u_1_7_6      *              1             0             1 
    89 u_2_7_6      *              0             0             1 

Integer feasibility conditions:

KKT.PE: max.abs.err = 4.55e-13 on row 4
        max.rel.err = 1.08e-16 on row 43
        High quality

KKT.PB: max.abs.err = 2.27e-13 on row 32
        max.rel.err = 1.87e-15 on row 225
        High quality

End of output
